<number of tasks>
20

<cycle time>
1000

<order strength>
0,2


<task times>
1 133
2 46
3 266
4 271
5 183
6 110
7 357
8 299
9 69
10 32
11 186
12 190
13 284
14 252
15 79
16 262
17 54
18 572
19 252
20 526

<precedence relations>
2,7
2,8
2,9
3,6
4,5
5,10
5,11
8,13
9,12
10,16
11,14
11,15
14,18
14,19
15,17
15,20

<end>
